NAME : tsp50_1.233.tour
COMMENT : Length = 233
COMMENT : Found by LKH [Keld Helsgaun]
TYPE : TOUR
DIMENSION : 50
TOUR_SECTION
1
9
19
14
5
2
31
35
13
42
15
29
34
33
7
16
23
43
46
49
6
27
41
24
47
28
45
50
32
22
20
25
40
18
17
39
30
37
3
12
11
4
44
10
38
8
26
48
21
36
-1
EOF
